p cnf 913 2195
a 1 2 3 4 21 22 23 24 25 26 27 28 29 30 31 32 33 34 35 36 37 38 39 40 41 42 43 44 45 46 47 48 49 50 51 52 53 54 55 56 57 58 59 60 61 62 63 64 65 66 67 68 69 70 71 72 73 74 75 76 77 78 79 80 81 82 83 84 85 86 0
e 5 6 7 8 9 10 11 12 13 14 15 16 17 18 19 20 87 88 89 90 91 92 93 94 95 96 97 98 99 100 101 102 103 104 105 106 107 108 109 110 111 112 113 114 115 116 117 118 119 120 121 122 123 124 125 126 127 128 129 130 131 132 133 134 135 136 137 138 139 140 141 142 143 144 145 146 147 148 149 150 151 152 153 154 155 156 157 158 159 160 161 162 163 164 165 166 167 168 169 170 171 172 173 174 175 176 177 178 179 180 181 182 183 184 185 186 187 188 189 190 191 192 193 194 195 196 197 198 199 200 201 202 203 204 205 206 207 208 209 210 211 212 213 214 215 216 217 218 219 220 221 222 223 224 225 226 227 228 229 230 231 232 233 234 235 236 237 238 239 240 241 242 243 244 245 246 247 248 249 250 251 252 253 254 255 256 257 258 259 260 261 262 263 264 265 266 267 268 269 270 271 272 273 274 275 276 277 278 279 280 281 282 283 284 285 286 287 288 289 290 291 292 293 294 295 296 297 298 299 300 301 302 303 304 305 306 307 308 309 310 311 312 313 314 315 316 317 318 319 320 321 322 323 324 325 326 327 328 329 330 331 332 333 334 335 336 337 338 339 340 341 342 343 344 345 346 347 348 349 350 351 352 353 354 355 356 357 358 359 360 361 362 363 364 365 366 367 368 369 370 371 372 373 374 375 376 377 378 379 380 381 382 383 384 385 386 387 388 389 390 391 392 393 394 395 396 397 398 399 400 401 402 403 404 405 406 407 408 409 410 411 412 413 414 415 416 417 418 419 420 421 422 423 424 425 426 427 428 429 430 431 432 433 434 435 436 437 438 439 440 441 442 443 444 445 446 447 448 449 450 451 452 453 454 455 456 457 458 459 460 461 462 463 464 465 466 467 468 469 470 471 472 473 474 475 476 477 478 479 480 481 482 483 484 485 486 487 488 489 490 491 492 493 494 495 496 497 498 499 500 501 502 503 504 505 506 507 508 509 510 511 512 513 514 515 516 517 518 519 520 521 522 523 524 525 526 527 528 529 530 531 532 533 534 535 536 537 538 539 540 541 542 543 544 545 546 547 548 549 550 551 552 553 554 555 556 557 558 559 560 561 562 563 564 565 566 567 568 569 570 571 572 573 574 575 576 577 578 579 580 581 582 583 584 585 586 587 588 589 590 591 592 593 594 595 596 597 598 599 600 601 602 603 604 605 606 607 608 609 610 611 612 613 614 615 616 617 618 619 620 621 622 623 624 625 626 627 628 629 630 631 632 633 634 635 636 637 638 639 640 641 642 643 644 645 646 647 648 649 650 651 652 653 654 655 656 657 658 659 660 661 662 663 664 665 666 667 668 669 670 671 672 673 674 675 676 677 678 679 680 681 682 683 684 685 686 687 688 689 690 691 692 693 694 695 696 697 698 699 700 701 702 703 704 705 706 707 708 709 710 711 712 713 714 715 716 717 718 719 720 721 722 723 724 725 726 727 728 729 730 731 732 733 734 735 736 737 738 739 740 741 742 743 744 745 746 747 748 749 750 751 752 753 754 755 756 757 758 759 760 761 762 763 764 765 766 767 768 769 770 771 772 773 774 775 776 777 778 779 780 781 782 783 784 785 786 787 788 789 790 791 792 793 794 795 796 797 798 799 800 801 802 803 804 805 806 807 808 809 810 811 812 813 814 815 816 817 818 819 820 821 822 823 824 825 826 827 828 829 830 831 832 833 834 835 836 837 838 839 840 841 842 843 844 845 846 847 848 849 850 851 852 853 854 855 856 857 858 859 860 861 862 863 864 865 866 867 868 869 870 871 872 873 874 875 876 877 878 879 880 881 882 883 884 885 886 887 888 889 890 891 892 893 894 895 896 897 898 899 900 901 902 903 904 905 906 907 908 909 910 911 912 913 0
-913 0
913 -747 0
913 -820 0
913 -873 0
913 -912 0
3 2 1 -746 -911 912 0
911 -892 0
911 -910 0
-5 -6 -7 -8 -9 -10 -11 -12 -13 -14 -15 -16 -17 -18 -19 -20 -743 -817 -870 -909 910 0
909 -908 0
909 -445 0
909 -446 0
909 -447 0
909 -448 0
-907 -902 -897 908 0
907 -903 0
907 -469 0
907 -581 0
907 -472 0
907 -583 0
907 -904 0
907 -905 0
907 -906 0
907 -59 0
907 -58 0
907 -57 0
907 -56 0
907 -55 0
907 -54 0
907 -53 0
-5 -26 906 0
-23 5 905 0
-5 -64 904 0
5 -61 903 0
902 -898 0
902 -459 0
902 -573 0
902 -461 0
902 -899 0
902 -575 0
902 -900 0
902 -901 0
902 -46 0
902 -45 0
902 -44 0
902 -43 0
902 -42 0
902 -41 0
902 -40 0
-5 -51 901 0
-5 -24 900 0
-22 5 899 0
5 -48 898 0
897 -893 0
897 -450 0
897 -566 0
897 -453 0
897 -894 0
897 -567 0
897 -895 0
897 -896 0
897 -33 0
897 -32 0
897 -31 0
897 -30 0
897 -29 0
897 -28 0
897 -27 0
-5 -25 896 0
-5 -38 895 0
-21 5 894 0
-35 5 893 0
-891 -87 892 0
891 -890 0
891 -844 0
891 -781 0
891 -414 0
-119 -118 -117 -116 -889 890 0
889 -878 0
889 -883 0
889 -888 0
54 53 56 55 59 58 57 -887 -886 -885 -254 -143 -252 -140 -884 888 0
887 26 0
887 5 0
886 23 0
886 -5 0
885 64 0
885 5 0
884 61 0
884 -5 0
46 45 43 40 44 42 41 -882 -881 -246 -880 -132 -244 -130 -879 883 0
882 51 0
882 5 0
881 24 0
881 5 0
880 22 0
880 -5 0
879 48 0
879 -5 0
28 32 31 30 29 27 33 -877 -876 -238 -875 -124 -237 -121 -874 878 0
877 25 0
877 5 0
876 38 0
876 5 0
875 21 0
875 -5 0
874 35 0
874 -5 0
4 2 1 -746 -872 873 0
872 -846 0
872 -871 0
-5 -6 -7 -8 -9 -10 -11 -12 -13 -14 -15 -16 -17 -18 -19 -20 -870 -725 -809 -863 871 0
870 -866 0
870 -869 0
-738 -737 -736 -868 -867 869 0
868 -734 0
868 -619 0
868 -445 0
868 -446 0
868 -447 0
868 -448 0
867 -813 0
867 -499 0
867 -445 0
867 -446 0
867 -447 0
867 -448 0
-718 -865 -864 -717 -716 866 0
865 -714 0
865 -522 0
865 -445 0
865 -446 0
865 -447 0
865 -448 0
864 -805 0
864 -561 0
864 -445 0
864 -446 0
864 -447 0
864 -448 0
863 -862 0
863 -445 0
863 -446 0
863 -447 0
863 -448 0
-861 -856 -851 862 0
861 -857 0
861 -858 0
861 -859 0
861 -860 0
861 -470 0
861 -495 0
861 -496 0
861 -474 0
861 -77 0
861 -73 0
861 -59 0
861 -58 0
861 -57 0
861 -56 0
861 -53 0
-10 -64 860 0
-10 -26 859 0
10 -61 858 0
-23 10 857 0
856 -852 0
856 -853 0
856 -854 0
856 -460 0
856 -488 0
856 -489 0
856 -463 0
856 -855 0
856 -76 0
856 -70 0
856 -46 0
856 -45 0
856 -44 0
856 -43 0
856 -40 0
-10 -51 855 0
-10 -24 854 0
10 -48 853 0
-22 10 852 0
851 -847 0
851 -451 0
851 -479 0
851 -480 0
851 -452 0
851 -848 0
851 -849 0
851 -850 0
851 -75 0
851 -67 0
851 -33 0
851 -32 0
851 -31 0
851 -30 0
851 -27 0
-21 10 850 0
-10 -25 849 0
-35 10 848 0
-10 -38 847 0
-845 -87 846 0
845 -837 0
845 -773 0
845 -396 0
845 -844 0
-843 -840 844 0
843 -841 0
843 -842 0
843 -407 0
843 -408 0
843 -409 0
-119 -118 -117 -116 -290 -405 842 0
-119 -118 -117 -116 -170 -777 841 0
840 -387 0
840 -388 0
840 -838 0
840 -839 0
840 -389 0
-119 -118 -117 -116 -193 -385 839 0
-119 -118 -117 -116 -232 -769 838 0
-119 -118 -117 -116 -836 837 0
836 -825 0
836 -830 0
836 -835 0
53 56 59 58 57 73 77 -145 -167 -166 -141 -834 -833 -832 -831 835 0
834 64 0
834 10 0
833 26 0
833 10 0
832 61 0
832 -10 0
831 23 0
831 -10 0
76 46 45 43 40 70 44 -829 -134 -160 -159 -131 -828 -827 -826 830 0
829 51 0
829 10 0
828 10 0
828 24 0
827 48 0
827 -10 0
826 22 0
826 -10 0
32 31 30 27 33 67 75 -824 -823 -822 -123 -151 -150 -122 -821 825 0
824 21 0
824 -10 0
823 10 0
823 25 0
822 35 0
822 -10 0
821 38 0
821 10 0
4 3 1 -746 -819 820 0
819 -783 0
819 -818 0
-5 -6 -7 -8 -9 -10 -11 -12 -13 -14 -15 -16 -17 -18 -19 -20 -817 -809 -706 -800 818 0
817 -812 0
817 -816 0
-733 -732 -731 -815 -814 816 0
815 -638 0
815 -739 0
815 -445 0
815 -446 0
815 -447 0
815 -448 0
814 -813 0
814 -544 0
814 -445 0
814 -446 0
814 -447 0
814 -448 0
-741 -730 -729 813 0
-662 -811 -661 -660 -810 812 0
811 -684 0
811 -477 0
811 -445 0
811 -446 0
811 -447 0
811 -448 0
810 -801 0
810 -561 0
810 -445 0
810 -446 0
810 -447 0
810 -448 0
809 -804 0
809 -808 0
-713 -712 -711 -807 -806 808 0
807 -719 0
807 -585 0
807 -445 0
807 -446 0
807 -447 0
807 -448 0
806 -805 0
806 -544 0
806 -445 0
806 -446 0
806 -447 0
806 -448 0
-723 -722 -721 805 0
-683 -682 -681 -803 -802 804 0
803 -663 0
803 -602 0
803 -445 0
803 -446 0
803 -447 0
803 -448 0
802 -801 0
802 -499 0
802 -445 0
802 -446 0
802 -447 0
802 -448 0
-704 -703 -702 801 0
800 -799 0
800 -445 0
800 -446 0
800 -447 0
800 -448 0
-798 -793 -788 799 0
798 -794 0
798 -795 0
798 -538 0
798 -539 0
798 -517 0
798 -518 0
798 -796 0
798 -797 0
798 -77 0
798 -73 0
798 -59 0
798 -58 0
798 -57 0
798 -56 0
798 -53 0
-23 15 797 0
-15 -26 796 0
-15 -64 795 0
15 -61 794 0
793 -789 0
793 -790 0
793 -791 0
793 -532 0
793 -533 0
793 -510 0
793 -511 0
793 -792 0
793 -76 0
793 -70 0
793 -46 0
793 -45 0
793 -44 0
793 -43 0
793 -40 0
-15 -24 792 0
-15 -51 791 0
15 -48 790 0
-22 15 789 0
788 -784 0
788 -785 0
788 -786 0
788 -787 0
788 -526 0
788 -503 0
788 -504 0
788 -75 0
788 -67 0
788 -528 0
788 -33 0
788 -32 0
788 -31 0
788 -30 0
788 -27 0
-15 -38 787 0
-15 -25 786 0
-35 15 785 0
-21 15 784 0
-782 -87 783 0
782 -764 0
782 -377 0
782 -773 0
782 -781 0
-780 -776 781 0
780 -778 0
780 -779 0
780 -402 0
780 -403 0
780 -404 0
-119 -118 -117 -116 -410 -309 779 0
-119 -118 -117 -116 -215 -777 778 0
777 -400 0
777 -401 0
777 -412 0
776 -774 0
776 -331 0
776 -332 0
776 -775 0
776 -333 0
-119 -118 -117 -116 -148 -355 775 0
-119 -118 -117 -116 -232 -765 774 0
-772 -768 773 0
772 -770 0
772 -771 0
772 -382 0
772 -383 0
772 -384 0
-119 -118 -117 -116 -256 -390 771 0
-119 -118 -117 -116 -215 -769 770 0
769 -392 0
769 -393 0
769 -394 0
768 -766 0
768 -767 0
768 -352 0
768 -353 0
768 -354 0
-119 -118 -117 -116 -273 -334 767 0
-119 -118 -117 -116 -170 -765 766 0
765 -373 0
765 -374 0
765 -375 0
-119 -118 -117 -116 -763 764 0
763 -752 0
763 -757 0
763 -762 0
53 56 59 58 57 73 77 -761 -760 -189 -188 -210 -209 -759 -758 762 0
761 26 0
761 15 0
760 23 0
760 -15 0
759 64 0
759 15 0
758 61 0
758 -15 0
76 46 45 43 40 70 44 -756 -182 -181 -204 -203 -755 -754 -753 757 0
756 15 0
756 24 0
755 51 0
755 15 0
754 48 0
754 -15 0
753 22 0
753 -15 0
32 31 30 27 33 -199 67 75 -175 -174 -197 -751 -750 -749 -748 752 0
751 38 0
751 15 0
750 15 0
750 25 0
749 35 0
749 -15 0
748 21 0
748 -15 0
4 3 2 -746 -745 747 0
746 -4 0
746 -3 0
746 -2 0
746 -1 0
745 -416 0
745 -744 0
-5 -6 -7 -8 -9 -10 -11 -12 -13 -14 -15 -16 -17 -18 -19 -20 -743 -725 -706 -449 744 0
743 -728 0
743 -742 0
-741 -740 -735 -730 -729 742 0
741 -679 0
741 -445 0
741 -446 0
741 -447 0
741 -448 0
740 -700 0
740 -739 0
740 -445 0
740 -446 0
740 -447 0
740 -448 0
-738 -737 -736 739 0
738 -585 0
738 -619 0
738 -445 0
738 -446 0
738 -447 0
738 -448 0
737 -602 0
737 -445 0
737 -446 0
737 -447 0
737 -448 0
736 -499 0
736 -679 0
736 -445 0
736 -446 0
736 -447 0
736 -448 0
735 -659 0
735 -734 0
735 -445 0
735 -446 0
735 -447 0
735 -448 0
-733 -732 -731 734 0
733 -585 0
733 -445 0
733 -446 0
733 -447 0
733 -448 0
732 -544 0
732 -679 0
732 -445 0
732 -446 0
732 -447 0
732 -448 0
731 -638 0
731 -602 0
731 -445 0
731 -446 0
731 -447 0
731 -448 0
730 -700 0
730 -602 0
730 -445 0
730 -446 0
730 -447 0
730 -448 0
729 -659 0
729 -585 0
729 -445 0
729 -446 0
729 -447 0
729 -448 0
-562 -727 -726 -545 -500 728 0
727 -477 0
727 -622 0
727 -445 0
727 -446 0
727 -447 0
727 -448 0
726 -522 0
726 -708 0
726 -445 0
726 -446 0
726 -447 0
726 -448 0
725 -710 0
725 -724 0
-723 -722 -721 -720 -715 724 0
723 -700 0
723 -445 0
723 -446 0
723 -447 0
723 -448 0
722 -477 0
722 -679 0
722 -445 0
722 -446 0
722 -447 0
722 -448 0
721 -659 0
721 -638 0
721 -445 0
721 -446 0
721 -447 0
721 -448 0
720 -719 0
720 -679 0
720 -445 0
720 -446 0
720 -447 0
720 -448 0
-718 -717 -716 719 0
718 -477 0
718 -445 0
718 -446 0
718 -447 0
718 -448 0
717 -561 0
717 -700 0
717 -445 0
717 -446 0
717 -447 0
717 -448 0
716 -522 0
716 -638 0
716 -445 0
716 -446 0
716 -447 0
716 -448 0
715 -714 0
715 -659 0
715 -445 0
715 -446 0
715 -447 0
715 -448 0
-713 -712 -711 714 0
713 -638 0
713 -445 0
713 -446 0
713 -447 0
713 -448 0
712 -477 0
712 -585 0
712 -445 0
712 -446 0
712 -447 0
712 -448 0
711 -544 0
711 -700 0
711 -445 0
711 -446 0
711 -447 0
711 -448 0
-621 -620 -603 -709 -707 710 0
709 -708 0
709 -619 0
709 -445 0
709 -446 0
709 -447 0
709 -448 0
-642 -641 -640 708 0
707 -563 0
707 -602 0
707 -445 0
707 -446 0
707 -447 0
707 -448 0
706 -643 0
706 -705 0
-704 -703 -702 -701 -680 705 0
704 -659 0
704 -445 0
704 -446 0
704 -447 0
704 -448 0
703 -700 0
703 -619 0
703 -445 0
703 -446 0
703 -447 0
703 -448 0
702 -522 0
702 -679 0
702 -445 0
702 -446 0
702 -447 0
702 -448 0
701 -684 0
701 -700 0
701 -445 0
701 -446 0
701 -447 0
701 -448 0
-699 -694 -689 700 0
699 -695 0
699 -470 0
699 -438 0
699 -439 0
699 -696 0
699 -697 0
699 -698 0
699 -474 0
699 -86 0
699 -77 0
699 -73 0
699 -72 0
699 -59 0
699 -58 0
699 -57 0
-23 18 698 0
-18 -26 697 0
12 -61 696 0
-12 -64 695 0
694 -460 0
694 -690 0
694 -691 0
694 -692 0
694 -430 0
694 -431 0
694 -463 0
694 -693 0
694 -85 0
694 -76 0
694 -70 0
694 -69 0
694 -46 0
694 -45 0
694 -44 0
-12 -51 693 0
-18 -24 692 0
12 -48 691 0
-22 18 690 0
689 -451 0
689 -685 0
689 -686 0
689 -687 0
689 -421 0
689 -452 0
689 -688 0
689 -84 0
689 -75 0
689 -67 0
689 -66 0
689 -424 0
689 -33 0
689 -32 0
689 -31 0
-35 12 688 0
-12 -38 687 0
-18 -25 686 0
-21 18 685 0
-683 -682 -681 684 0
683 -619 0
683 -445 0
683 -446 0
683 -447 0
683 -448 0
682 -522 0
682 -602 0
682 -445 0
682 -446 0
682 -447 0
682 -448 0
681 -659 0
681 -499 0
681 -445 0
681 -446 0
681 -447 0
681 -448 0
680 -663 0
680 -679 0
680 -445 0
680 -446 0
680 -447 0
680 -448 0
-678 -673 -668 679 0
678 -581 0
678 -438 0
678 -439 0
678 -674 0
678 -675 0
678 -676 0
678 -677 0
678 -583 0
678 -86 0
678 -77 0
678 -72 0
678 -59 0
678 -58 0
678 -57 0
678 -55 0
-8 -64 677 0
-17 -26 676 0
8 -61 675 0
-23 17 674 0
673 -573 0
673 -430 0
673 -431 0
673 -669 0
673 -670 0
673 -671 0
673 -575 0
673 -672 0
673 -85 0
673 -76 0
673 -69 0
673 -46 0
673 -45 0
673 -44 0
673 -42 0
-8 -51 672 0
-17 -24 671 0
8 -48 670 0
-22 17 669 0
668 -566 0
668 -421 0
668 -664 0
668 -665 0
668 -666 0
668 -567 0
668 -667 0
668 -84 0
668 -75 0
668 -66 0
668 -424 0
668 -33 0
668 -32 0
668 -31 0
668 -29 0
-17 -25 667 0
-8 -38 666 0
-35 8 665 0
-21 17 664 0
-662 -661 -660 663 0
662 -522 0
662 -445 0
662 -446 0
662 -447 0
662 -448 0
661 -477 0
661 -619 0
661 -445 0
661 -446 0
661 -447 0
661 -448 0
660 -561 0
660 -659 0
660 -445 0
660 -446 0
660 -447 0
660 -448 0
-658 -653 -648 659 0
658 -654 0
658 -655 0
658 -656 0
658 -517 0
658 -518 0
658 -438 0
658 -439 0
658 -657 0
658 -86 0
658 -80 0
658 -77 0
658 -73 0
658 -72 0
658 -58 0
658 -57 0
-23 19 657 0
-16 -64 656 0
-19 -26 655 0
16 -61 654 0
653 -649 0
653 -650 0
653 -510 0
653 -511 0
653 -430 0
653 -431 0
653 -651 0
653 -652 0
653 -85 0
653 -79 0
653 -76 0
653 -70 0
653 -69 0
653 -45 0
653 -44 0
-16 -51 652 0
-22 19 651 0
-19 -24 650 0
16 -48 649 0
648 -644 0
648 -503 0
648 -504 0
648 -421 0
648 -645 0
648 -646 0
648 -647 0
648 -84 0
648 -78 0
648 -75 0
648 -67 0
648 -66 0
648 -424 0
648 -32 0
648 -31 0
-21 19 647 0
-16 -38 646 0
-35 16 645 0
-19 -25 644 0
-642 -641 -640 -639 -586 643 0
642 -544 0
642 -445 0
642 -446 0
642 -447 0
642 -448 0
641 -561 0
641 -585 0
641 -445 0
641 -446 0
641 -447 0
641 -448 0
640 -638 0
640 -499 0
640 -445 0
640 -446 0
640 -447 0
640 -448 0
639 -622 0
639 -638 0
639 -445 0
639 -446 0
639 -447 0
639 -448 0
-637 -632 -627 638 0
637 -633 0
637 -634 0
637 -635 0
637 -636 0
637 -470 0
637 -538 0
637 -539 0
637 -474 0
637 -80 0
637 -77 0
637 -73 0
637 -72 0
637 -58 0
637 -57 0
637 -56 0
-11 -64 636 0
-14 -26 635 0
11 -61 634 0
-23 14 633 0
632 -628 0
632 -629 0
632 -630 0
632 -460 0
632 -532 0
632 -533 0
632 -463 0
632 -631 0
632 -79 0
632 -76 0
632 -70 0
632 -69 0
632 -45 0
632 -44 0
632 -43 0
-11 -51 631 0
-14 -24 630 0
11 -48 629 0
-22 14 628 0
627 -623 0
627 -451 0
627 -526 0
627 -624 0
627 -452 0
627 -625 0
627 -626 0
627 -78 0
627 -75 0
627 -67 0
627 -66 0
627 -528 0
627 -32 0
627 -31 0
627 -30 0
-14 -25 626 0
-35 11 625 0
-11 -38 624 0
-21 14 623 0
-621 -620 -603 622 0
621 -499 0
621 -445 0
621 -446 0
621 -447 0
621 -448 0
620 -544 0
620 -619 0
620 -445 0
620 -446 0
620 -447 0
620 -448 0
-618 -613 -608 619 0
618 -614 0
618 -495 0
618 -496 0
618 -517 0
618 -518 0
618 -615 0
618 -616 0
618 -617 0
618 -77 0
618 -74 0
618 -73 0
618 -72 0
618 -59 0
618 -57 0
618 -56 0
-23 11 617 0
-11 -26 616 0
14 -61 615 0
-14 -64 614 0
613 -488 0
613 -489 0
613 -510 0
613 -511 0
613 -609 0
613 -610 0
613 -611 0
613 -612 0
613 -76 0
613 -71 0
613 -70 0
613 -69 0
613 -46 0
613 -44 0
613 -43 0
-11 -24 612 0
-14 -51 611 0
14 -48 610 0
-22 11 609 0
608 -479 0
608 -480 0
608 -503 0
608 -504 0
608 -604 0
608 -605 0
608 -606 0
608 -607 0
608 -75 0
608 -68 0
608 -67 0
608 -66 0
608 -33 0
608 -31 0
608 -30 0
-11 -25 607 0
-14 -38 606 0
-35 14 605 0
-21 11 604 0
603 -561 0
603 -602 0
603 -445 0
603 -446 0
603 -447 0
603 -448 0
-601 -596 -591 602 0
601 -495 0
601 -496 0
601 -581 0
601 -583 0
601 -597 0
601 -598 0
601 -599 0
601 -600 0
601 -80 0
601 -77 0
601 -72 0
601 -58 0
601 -57 0
601 -56 0
601 -55 0
-23 9 600 0
-9 -26 599 0
-6 -64 598 0
6 -61 597 0
596 -592 0
596 -593 0
596 -488 0
596 -489 0
596 -573 0
596 -575 0
596 -594 0
596 -595 0
596 -79 0
596 -76 0
596 -69 0
596 -45 0
596 -44 0
596 -43 0
596 -42 0
-6 -51 595 0
6 -48 594 0
-9 -24 593 0
-22 9 592 0
591 -587 0
591 -588 0
591 -479 0
591 -480 0
591 -566 0
591 -567 0
591 -589 0
591 -590 0
591 -78 0
591 -75 0
591 -66 0
591 -32 0
591 -31 0
591 -30 0
591 -29 0
-6 -38 590 0
-35 6 589 0
-9 -25 588 0
-21 9 587 0
586 -563 0
586 -585 0
586 -445 0
586 -446 0
586 -447 0
586 -448 0
-584 -577 -570 585 0
584 -538 0
584 -539 0
584 -578 0
584 -579 0
584 -580 0
584 -581 0
584 -582 0
584 -583 0
584 -77 0
584 -72 0
584 -59 0
584 -58 0
584 -57 0
584 -56 0
584 -55 0
-5 -65 583 0
-7 -64 582 0
5 -62 581 0
-13 -26 580 0
7 -61 579 0
-23 13 578 0
577 -532 0
577 -533 0
577 -571 0
577 -572 0
577 -573 0
577 -574 0
577 -575 0
577 -576 0
577 -76 0
577 -69 0
577 -46 0
577 -45 0
577 -44 0
577 -43 0
577 -42 0
-7 -51 576 0
-5 -52 575 0
-13 -24 574 0
5 -49 573 0
7 -48 572 0
-22 13 571 0
570 -526 0
570 -564 0
570 -565 0
570 -566 0
570 -567 0
570 -568 0
570 -75 0
570 -66 0
570 -528 0
570 -569 0
570 -33 0
570 -32 0
570 -31 0
570 -30 0
570 -29 0
-13 -25 569 0
-7 -38 568 0
-5 -39 567 0
-36 5 566 0
-35 7 565 0
-21 13 564 0
-562 -545 -500 563 0
562 -561 0
562 -445 0
562 -446 0
562 -447 0
562 -448 0
-560 -555 -550 561 0
560 -469 0
560 -556 0
560 -557 0
560 -437 0
560 -472 0
560 -440 0
560 -558 0
560 -559 0
560 -83 0
560 -73 0
560 -72 0
560 -59 0
560 -58 0
560 -56 0
560 -54 0
-8 -26 559 0
-23 8 558 0
-17 -64 557 0
17 -61 556 0
555 -459 0
555 -551 0
555 -552 0
555 -429 0
555 -461 0
555 -432 0
555 -553 0
555 -554 0
555 -82 0
555 -70 0
555 -69 0
555 -46 0
555 -45 0
555 -43 0
555 -41 0
-22 8 554 0
-8 -24 553 0
-17 -51 552 0
17 -48 551 0
550 -450 0
550 -546 0
550 -547 0
550 -420 0
550 -422 0
550 -453 0
550 -548 0
550 -549 0
550 -81 0
550 -67 0
550 -66 0
550 -33 0
550 -32 0
550 -30 0
550 -28 0
-8 -25 549 0
-21 8 548 0
-17 -38 547 0
-35 17 546 0
545 -522 0
545 -544 0
545 -445 0
545 -446 0
545 -447 0
545 -448 0
-543 -536 -529 544 0
543 -537 0
543 -437 0
543 -538 0
543 -539 0
543 -540 0
543 -541 0
543 -440 0
543 -542 0
543 -83 0
543 -77 0
543 -74 0
543 -73 0
543 -72 0
543 -59 0
543 -56 0
-16 -26 542 0
-19 -64 541 0
-23 16 540 0
-15 -63 539 0
15 -60 538 0
19 -61 537 0
536 -530 0
536 -531 0
536 -429 0
536 -532 0
536 -533 0
536 -534 0
536 -432 0
536 -535 0
536 -82 0
536 -76 0
536 -71 0
536 -70 0
536 -69 0
536 -46 0
536 -43 0
-19 -51 535 0
-16 -24 534 0
-15 -50 533 0
15 -47 532 0
19 -48 531 0
-22 16 530 0
529 -523 0
529 -524 0
529 -525 0
529 -420 0
529 -526 0
529 -422 0
529 -527 0
529 -81 0
529 -75 0
529 -68 0
529 -67 0
529 -66 0
529 -528 0
529 -33 0
529 -30 0
-15 -37 528 0
-19 -38 527 0
-34 15 526 0
-16 -25 525 0
-35 19 524 0
-21 16 523 0
-521 -514 -507 522 0
521 -515 0
521 -516 0
521 -469 0
521 -517 0
521 -518 0
521 -472 0
521 -519 0
521 -520 0
521 -73 0
521 -72 0
521 -59 0
521 -58 0
521 -57 0
521 -56 0
521 -54 0
-23 7 520 0
-7 -26 519 0
-15 -65 518 0
15 -62 517 0
13 -61 516 0
-13 -64 515 0
514 -508 0
514 -509 0
514 -459 0
514 -510 0
514 -511 0
514 -461 0
514 -512 0
514 -513 0
514 -70 0
514 -69 0
514 -46 0
514 -45 0
514 -44 0
514 -43 0
514 -41 0
-22 7 513 0
-7 -24 512 0
-15 -52 511 0
15 -49 510 0
-13 -51 509 0
13 -48 508 0
507 -501 0
507 -502 0
507 -450 0
507 -503 0
507 -504 0
507 -505 0
507 -453 0
507 -506 0
507 -67 0
507 -66 0
507 -33 0
507 -32 0
507 -31 0
507 -30 0
507 -28 0
-7 -25 506 0
-21 7 505 0
-15 -39 504 0
-36 15 503 0
-13 -38 502 0
-35 13 501 0
500 -477 0
500 -499 0
500 -445 0
500 -446 0
500 -447 0
500 -448 0
-498 -491 -484 499 0
498 -437 0
498 -492 0
498 -493 0
498 -494 0
498 -495 0
498 -496 0
498 -440 0
498 -497 0
498 -83 0
498 -77 0
498 -73 0
498 -72 0
498 -59 0
498 -58 0
498 -56 0
-12 -26 497 0
-10 -63 496 0
10 -60 495 0
-18 -64 494 0
18 -61 493 0
-23 12 492 0
491 -429 0
491 -485 0
491 -486 0
491 -487 0
491 -488 0
491 -489 0
491 -432 0
491 -490 0
491 -82 0
491 -76 0
491 -70 0
491 -69 0
491 -46 0
491 -45 0
491 -43 0
-12 -24 490 0
-10 -50 489 0
10 -47 488 0
-18 -51 487 0
18 -48 486 0
-22 12 485 0
484 -420 0
484 -478 0
484 -479 0
484 -480 0
484 -422 0
484 -481 0
484 -482 0
484 -483 0
484 -81 0
484 -75 0
484 -67 0
484 -66 0
484 -33 0
484 -32 0
484 -30 0
-12 -25 483 0
-21 12 482 0
-18 -38 481 0
-10 -37 480 0
-34 10 479 0
-35 18 478 0
-476 -467 -458 477 0
476 -468 0
476 -469 0
476 -470 0
476 -471 0
476 -472 0
476 -473 0
476 -474 0
476 -475 0
476 -74 0
476 -73 0
476 -72 0
476 -59 0
476 -57 0
476 -56 0
476 -54 0
-23 6 475 0
-10 -65 474 0
-6 -26 473 0
-5 -63 472 0
-9 -64 471 0
10 -62 470 0
5 -60 469 0
9 -61 468 0
467 -459 0
467 -460 0
467 -461 0
467 -462 0
467 -463 0
467 -464 0
467 -465 0
467 -466 0
467 -71 0
467 -70 0
467 -69 0
467 -46 0
467 -44 0
467 -43 0
467 -41 0
-6 -24 466 0
-22 6 465 0
-9 -51 464 0
-10 -52 463 0
9 -48 462 0
-5 -50 461 0
10 -49 460 0
5 -47 459 0
458 -450 0
458 -451 0
458 -452 0
458 -453 0
458 -454 0
458 -455 0
458 -456 0
458 -457 0
458 -68 0
458 -67 0
458 -66 0
458 -33 0
458 -31 0
458 -30 0
458 -28 0
-6 -25 457 0
-21 6 456 0
-9 -38 455 0
-35 9 454 0
-34 5 453 0
-10 -39 452 0
-36 10 451 0
-5 -37 450 0
449 -444 0
449 -445 0
449 -446 0
449 -447 0
449 -448 0
-25 24 448 0
-23 22 447 0
-22 21 446 0
-24 26 445 0
-443 -434 -425 444 0
443 -435 0
443 -436 0
443 -437 0
443 -438 0
443 -439 0
443 -440 0
443 -441 0
443 -442 0
443 -86 0
443 -83 0
443 -77 0
443 -73 0
443 -59 0
443 -58 0
443 -53 0
-23 20 442 0
-20 -26 441 0
-20 -65 440 0
-20 -63 439 0
20 -60 438 0
20 -62 437 0
-20 -64 436 0
20 -61 435 0
434 -426 0
434 -427 0
434 -428 0
434 -429 0
434 -430 0
434 -431 0
434 -432 0
434 -433 0
434 -85 0
434 -82 0
434 -76 0
434 -70 0
434 -46 0
434 -45 0
434 -40 0
-20 -51 433 0
-20 -52 432 0
-20 -50 431 0
20 -47 430 0
20 -49 429 0
-20 -24 428 0
20 -48 427 0
-22 20 426 0
425 -417 0
425 -418 0
425 -419 0
425 -420 0
425 -421 0
425 -422 0
425 -423 0
425 -84 0
425 -81 0
425 -75 0
425 -67 0
425 -424 0
425 -33 0
425 -32 0
425 -27 0
-20 -37 424 0
-21 20 423 0
-20 -39 422 0
-34 20 421 0
-36 20 420 0
-20 -38 419 0
-20 -25 418 0
-35 20 417 0
-415 -87 416 0
415 -120 0
415 -377 0
415 -396 0
415 -414 0
-413 -399 414 0
413 -400 0
413 -401 0
413 -406 0
413 -411 0
413 -412 0
-119 -118 -117 -116 -350 412 0
-119 -118 -117 -116 -410 -371 411 0
410 -407 0
410 -408 0
410 -409 0
-119 -118 -117 -116 -290 -256 409 0
-119 -118 -117 -116 -273 408 0
-119 -118 -117 -116 -350 -170 407 0
-119 -118 -117 -116 -405 -330 406 0
405 -402 0
405 -403 0
405 -404 0
-119 -118 -117 -116 -256 404 0
-119 -118 -117 -116 -350 -215 403 0
-119 -118 -117 -116 -273 -309 402 0
-119 -118 -117 -116 -273 -371 401 0
-119 -118 -117 -116 -256 -330 400 0
399 -171 0
399 -216 0
399 -397 0
399 -398 0
399 -233 0
-119 -118 -117 -116 -293 -148 398 0
-119 -118 -117 -116 -379 -193 397 0
-395 -381 396 0
395 -386 0
395 -391 0
395 -392 0
395 -393 0
395 -394 0
-119 -118 -117 -116 -371 394 0
-119 -118 -117 -116 -350 -148 393 0
-119 -118 -117 -116 -309 -330 392 0
-119 -118 -117 -116 -350 -390 391 0
390 -387 0
390 -388 0
390 -389 0
-119 -118 -117 -116 -148 389 0
-119 -118 -117 -116 -371 -232 388 0
-119 -118 -117 -116 -309 -193 387 0
-119 -118 -117 -116 -330 -385 386 0
385 -382 0
385 -383 0
385 -384 0
-119 -118 -117 -116 -309 384 0
-119 -118 -117 -116 -256 -148 383 0
-119 -118 -117 -116 -371 -215 382 0
381 -378 0
381 -380 0
381 -274 0
381 -291 0
381 -292 0
-119 -118 -117 -116 -290 -379 380 0
379 -311 0
379 -312 0
379 -313 0
-119 -118 -117 -116 -273 -234 378 0
-376 -314 377 0
376 -351 0
376 -372 0
376 -373 0
376 -374 0
376 -375 0
-119 -118 -117 -116 -330 375 0
-119 -118 -117 -116 -290 -371 374 0
-119 -118 -117 -116 -350 -193 373 0
-119 -118 -117 -116 -371 -355 372 0
371 -360 0
371 -365 0
371 -370 0
59 58 57 73 72 77 86 -145 -369 -368 -367 -110 -109 -141 -366 370 0
369 26 0
369 18 0
368 23 0
368 -18 0
367 61 0
367 -12 0
366 64 0
366 12 0
76 69 46 45 70 85 44 -364 -134 -102 -101 -363 -362 -361 -131 365 0
364 51 0
364 12 0
363 18 0
363 24 0
362 48 0
362 -12 0
361 22 0
361 -18 0
32 31 33 -95 67 66 75 84 -359 -123 -92 -358 -357 -356 -122 360 0
359 35 0
359 -12 0
358 38 0
358 12 0
357 18 0
357 25 0
356 21 0
356 -18 0
355 -352 0
355 -353 0
355 -354 0
-119 -118 -117 -116 -290 354 0
-119 -118 -117 -116 -273 -193 353 0
-119 -118 -117 -116 -170 -330 352 0
-119 -118 -117 -116 -350 -334 351 0
350 -339 0
350 -344 0
350 -349 0
55 59 58 57 72 77 86 -254 -348 -347 -346 -345 -110 -109 -252 349 0
348 64 0
348 8 0
347 26 0
347 17 0
346 61 0
346 -8 0
345 23 0
345 -17 0
76 69 46 45 85 44 42 -343 -246 -342 -341 -340 -102 -101 -244 344 0
343 51 0
343 8 0
342 17 0
342 24 0
341 48 0
341 -8 0
340 22 0
340 -17 0
32 31 29 33 -95 66 75 84 -338 -238 -337 -336 -335 -92 -237 339 0
338 17 0
338 25 0
337 38 0
337 8 0
336 35 0
336 -8 0
335 21 0
335 -17 0
334 -331 0
334 -332 0
334 -333 0
-119 -118 -117 -116 -193 333 0
-119 -118 -117 -116 -290 -148 332 0
-119 -118 -117 -116 -330 -232 331 0
330 -319 0
330 -324 0
330 -329 0
58 57 73 72 77 86 80 -328 -110 -109 -189 -188 -327 -326 -325 329 0
328 23 0
328 -19 0
327 64 0
327 16 0
326 26 0
326 19 0
325 61 0
325 -16 0
76 69 45 79 70 85 44 -323 -322 -102 -101 -182 -181 -321 -320 324 0
323 51 0
323 16 0
322 22 0
322 -19 0
321 19 0
321 24 0
320 48 0
320 -16 0
32 31 -95 67 66 75 78 84 -318 -317 -316 -92 -175 -174 -315 319 0
318 21 0
318 -19 0
317 38 0
317 16 0
316 35 0
316 -16 0
315 19 0
315 25 0
314 -257 0
314 -310 0
314 -311 0
314 -312 0
314 -313 0
-119 -118 -117 -116 -215 313 0
-119 -118 -117 -116 -256 -232 312 0
-119 -118 -117 -116 -170 -309 311 0
-119 -118 -117 -116 -309 -293 310 0
309 -298 0
309 -303 0
309 -308 0
56 58 57 73 72 77 80 -145 -210 -209 -141 -307 -306 -305 -304 308 0
307 64 0
307 11 0
306 26 0
306 14 0
305 61 0
305 -11 0
304 23 0
304 -14 0
76 69 45 43 79 70 44 -302 -134 -204 -203 -131 -301 -300 -299 303 0
302 51 0
302 11 0
301 14 0
301 24 0
300 48 0
300 -11 0
299 22 0
299 -14 0
32 31 30 -199 67 66 75 78 -297 -296 -123 -295 -197 -122 -294 298 0
297 14 0
297 25 0
296 35 0
296 -11 0
295 38 0
295 11 0
294 21 0
294 -14 0
293 -274 0
293 -291 0
293 -292 0
-119 -118 -117 -116 -170 292 0
-119 -118 -117 -116 -290 -215 291 0
290 -279 0
290 -284 0
290 -289 0
56 59 57 74 73 72 77 -288 -287 -286 -189 -188 -167 -166 -285 289 0
288 23 0
288 -11 0
287 26 0
287 11 0
286 61 0
286 -14 0
285 64 0
285 14 0
76 69 46 43 71 70 44 -283 -282 -281 -280 -182 -181 -160 -159 284 0
283 11 0
283 24 0
282 51 0
282 14 0
281 48 0
281 -14 0
280 22 0
280 -11 0
31 30 33 68 67 66 75 -278 -277 -276 -275 -175 -174 -151 -150 279 0
278 11 0
278 25 0
277 38 0
277 14 0
276 35 0
276 -14 0
275 21 0
275 -11 0
-119 -118 -117 -116 -273 -232 274 0
273 -262 0
273 -267 0
273 -272 0
56 55 58 57 72 77 80 -271 -270 -269 -268 -254 -252 -167 -166 272 0
271 26 0
271 9 0
270 23 0
270 -9 0
269 64 0
269 6 0
268 61 0
268 -6 0
76 69 45 43 79 44 42 -266 -265 -246 -244 -160 -159 -264 -263 267 0
266 51 0
266 6 0
265 48 0
265 -6 0
264 24 0
264 9 0
263 22 0
263 -9 0
32 31 30 29 66 75 78 -261 -260 -238 -237 -151 -150 -259 -258 262 0
261 38 0
261 6 0
260 35 0
260 -6 0
259 25 0
259 9 0
258 21 0
258 -9 0
-119 -118 -117 -116 -256 -234 257 0
256 -241 0
256 -248 0
256 -255 0
56 55 59 58 57 72 77 -254 -253 -252 -251 -250 -249 -210 -209 255 0
254 65 0
254 5 0
253 64 0
253 7 0
252 62 0
252 -5 0
251 26 0
251 13 0
250 61 0
250 -7 0
249 23 0
249 -13 0
76 69 -247 46 45 43 44 42 -246 -245 -244 -243 -242 -204 -203 248 0
247 51 0
247 7 0
246 52 0
246 5 0
245 24 0
245 13 0
244 49 0
244 -5 0
243 48 0
243 -7 0
242 22 0
242 -13 0
-240 32 31 30 29 33 -199 66 -239 75 -238 -237 -236 -235 -197 241 0
240 25 0
240 13 0
239 38 0
239 7 0
238 39 0
238 5 0
237 36 0
237 -5 0
236 35 0
236 -7 0
235 21 0
235 -13 0
234 -171 0
234 -216 0
234 -233 0
-119 -118 -117 -116 -232 233 0
232 -221 0
232 -226 0
232 -231 0
54 56 59 58 73 72 83 -230 -229 -111 -143 -108 -228 -227 -140 231 0
230 26 0
230 8 0
229 23 0
229 -8 0
228 64 0
228 17 0
227 61 0
227 -17 0
69 46 45 43 70 82 41 -225 -224 -103 -132 -100 -223 -222 -130 226 0
225 22 0
225 -8 0
224 8 0
224 24 0
223 51 0
223 17 0
222 48 0
222 -17 0
28 32 30 33 81 67 66 -220 -219 -124 -93 -91 -218 -217 -121 221 0
220 8 0
220 25 0
219 21 0
219 -8 0
218 38 0
218 17 0
217 35 0
217 -17 0
-119 -118 -117 -116 -215 -193 216 0
215 -200 0
215 -207 0
215 -214 0
56 59 74 73 72 77 83 -213 -111 -212 -211 -210 -209 -108 -208 214 0
213 26 0
213 16 0
212 64 0
212 19 0
211 23 0
211 -16 0
210 63 0
210 15 0
209 60 0
209 -15 0
208 61 0
208 -19 0
76 69 46 43 71 70 82 -206 -103 -205 -204 -203 -100 -202 -201 207 0
206 51 0
206 19 0
205 16 0
205 24 0
204 50 0
204 15 0
203 47 0
203 -15 0
202 48 0
202 -19 0
201 22 0
201 -16 0
30 33 -199 81 68 67 66 75 -198 -93 -197 -91 -196 -195 -194 200 0
199 37 0
199 15 0
198 38 0
198 19 0
197 34 0
197 -15 0
196 16 0
196 25 0
195 35 0
195 -19 0
194 21 0
194 -16 0
193 -178 0
193 -185 0
193 -192 0
54 56 59 58 57 -191 73 72 -190 -143 -189 -188 -140 -187 -186 192 0
191 23 0
191 -7 0
190 26 0
190 7 0
189 65 0
189 15 0
188 62 0
188 -15 0
187 61 0
187 -13 0
186 64 0
186 13 0
69 46 45 43 70 44 41 -184 -183 -132 -182 -181 -130 -180 -179 185 0
184 22 0
184 -7 0
183 24 0
183 7 0
182 52 0
182 15 0
181 49 0
181 -15 0
180 51 0
180 13 0
179 48 0
179 -13 0
28 32 31 30 33 67 66 -177 -124 -176 -175 -174 -121 -173 -172 178 0
177 25 0
177 7 0
176 21 0
176 -7 0
175 39 0
175 15 0
174 36 0
174 -15 0
173 38 0
173 13 0
172 35 0
172 -13 0
-119 -118 -117 -116 -170 -148 171 0
170 -155 0
170 -162 0
170 -169 0
56 59 58 73 72 77 83 -168 -111 -167 -166 -165 -164 -163 -108 169 0
168 26 0
168 12 0
167 63 0
167 10 0
166 60 0
166 -10 0
165 64 0
165 18 0
164 61 0
164 -18 0
163 23 0
163 -12 0
76 69 46 45 43 70 82 -161 -103 -160 -159 -158 -157 -156 -100 162 0
161 12 0
161 24 0
160 50 0
160 10 0
159 47 0
159 -10 0
158 51 0
158 18 0
157 48 0
157 -18 0
156 22 0
156 -12 0
32 30 33 81 67 66 75 -154 -153 -152 -93 -151 -150 -149 -91 155 0
154 12 0
154 25 0
153 21 0
153 -12 0
152 38 0
152 18 0
151 37 0
151 10 0
150 34 0
150 -10 0
149 35 0
149 -18 0
148 -129 0
148 -138 0
148 -147 0
54 56 59 57 74 73 72 -146 -145 -144 -143 -142 -141 -140 -139 147 0
146 23 0
146 -6 0
145 65 0
145 10 0
144 26 0
144 6 0
143 63 0
143 5 0
142 64 0
142 9 0
141 62 0
141 -10 0
140 60 0
140 -5 0
139 61 0
139 -9 0
69 46 43 71 70 44 41 -137 -136 -135 -134 -133 -132 -131 -130 138 0
137 24 0
137 6 0
136 22 0
136 -6 0
135 51 0
135 9 0
134 52 0
134 10 0
133 48 0
133 -9 0
132 50 0
132 5 0
131 49 0
131 -10 0
130 47 0
130 -5 0
28 31 30 33 68 67 66 -128 -127 -126 -125 -124 -123 -122 -121 129 0
128 6 0
128 25 0
127 21 0
127 -6 0
126 38 0
126 9 0
125 35 0
125 -9 0
124 34 0
124 -5 0
123 39 0
123 10 0
122 36 0
122 -10 0
121 37 0
121 5 0
-119 -118 -117 -116 -115 120 0
119 25 0
119 -24 0
118 23 0
118 -22 0
117 22 0
117 -21 0
116 24 0
116 -26 0
115 -96 0
115 -105 0
115 -114 0
53 59 58 73 77 86 83 -113 -112 -111 -110 -109 -108 -107 -106 114 0
113 26 0
113 20 0
112 23 0
112 -20 0
111 65 0
111 20 0
110 63 0
110 20 0
109 60 0
109 -20 0
108 62 0
108 -20 0
107 64 0
107 20 0
106 61 0
106 -20 0
76 46 45 40 70 85 82 -104 -103 -102 -101 -100 -99 -98 -97 105 0
104 51 0
104 20 0
103 52 0
103 20 0
102 50 0
102 20 0
101 47 0
101 -20 0
100 49 0
100 -20 0
99 20 0
99 24 0
98 48 0
98 -20 0
97 22 0
97 -20 0
32 27 33 -95 81 67 75 84 -94 -93 -92 -91 -90 -89 -88 96 0
95 37 0
95 20 0
94 21 0
94 -20 0
93 39 0
93 20 0
92 34 0
92 -20 0
91 36 0
91 -20 0
90 38 0
90 20 0
89 20 0
89 25 0
88 35 0
88 -20 0
87 10 0
87 11 0
87 12 0
87 14 0
87 15 0
87 8 0
87 16 0
87 17 0
87 18 0
87 19 0
87 20 0
87 6 0
87 5 0
87 7 0
87 9 0
87 13 0
